132
100
13
3
42
7
31
46
8
17
15
27
46
30
16
43
8
16
16
17
15
24
50
27
45
19
44
18
1
4
18
27
38
22
10
21
44
28
42
23
5
4
30
31
44
26
16
44
36
43
7
15
33
6
13
32
18
37
34
19
32
2
46
20
35
34
26
39
1
2
37
14
36
14
40
17
7
6
13
8
9
5
38
8
36
28
2
14
24
1
5
21
6
49
35
37
9
19
21
22
28
25
27
8
6
39
17
24
24
46
19
30
14
19
14
33
15
3
13
36
12
50
10
4
7
8
16
41
9
34
13
46
34
44
